(set-info :smt-lib-version 2.6)
(set-logic QF_S)
(set-info :source |
Generated by: Murphy Berzish, Mitja Kulczynski, Federico Mora, Florin Manea, Joel Day, Dirk Nowotka, Vijay Ganesh, Zhengyang Lu
Generated on: 2020-10-01
Description: Translated from a collection of real-world regex queries, AutomataArk, collected by Loris D’Antoni and Fang Wang: https://github.com/lorisdanto/automatark
Application: Evaluate solvers on real-world regex queries
Target solver: Z3str3RE, CVC4, OSTRICH, Z3seq, Z3str3, Z3-Trau
Publications: Berzish, M., Kulczynski, M., Mora, F., Manea, F., Day, J. D., Nowotka, D., & Ganesh, V. (2021, July). An SMT solver for regular expressions and linear arithmetic over string length. In CAV 2021.
|)
(set-info :license "https://creativecommons.org/licenses/by/4.0/")
(set-info :category "industrial")
(set-info :status sat)

(declare-const X String)
(assert (not (str.in_re X (re.++ (str.to_re "cdpView") (re.* re.allchar) (str.to_re "protocol") (re.* re.allchar) (str.to_re "/s(robert@blackcastlesoft.com)\u{a}")))))
(assert (not (str.in_re X (re.++ (re.opt (re.range "A" "z")) ((_ re.loop 8 8) (re.range "0" "9")) (re.range "A" "z") (str.to_re "\u{a}")))))
(assert (str.in_re X (re.++ (re.+ (re.union (re.range "a" "z") (re.range "A" "Z") (re.range "0" "9"))) (str.to_re "\u{a}"))))
(assert (not (str.in_re X (re.++ (re.union (re.++ (str.to_re "0") (re.range "1" "9")) (re.++ (str.to_re "1") (re.range "0" "2"))) (str.to_re "/") (re.union (re.++ (str.to_re "3") (re.range "0" "1")) (re.++ (str.to_re "0") (re.range "1" "9")) (re.++ (str.to_re "2") (re.range "0" "9"))) (str.to_re "/") (re.union (re.++ (str.to_re "19") (re.range "0" "9") (re.range "0" "9")) (re.++ (str.to_re "200") (re.range "0" "3"))) (str.to_re "\u{a}")))))
(check-sat)

(exit)
